# Solution for model qis_1000_800_598
# Objective value = 3.0287490211028080e+02
x[0] 0
x[1] 0
x[2] 1
x[3] 0
x[4] 0
x[5] 1
x[6] 0
x[7] 0
x[8] 0
x[9] 0
x[10] 0
x[11] 0
x[12] 0
x[13] 0
x[14] 0
x[15] 1
x[16] 0
x[17] 1
x[18] 0
x[19] 0
x[20] 0
x[21] 0
x[22] 1.1029762124557136e-07
x[23] 0
x[24] 1
x[25] 1
x[26] 1
x[27] 1
x[28] 0
x[29] 0
x[30] 0
x[31] 1
x[32] 0
x[33] 0
x[34] 0
x[35] 1
x[36] 0
x[37] 1
x[38] 0
x[39] 1
x[40] 0
x[41] 0
x[42] 1
x[43] 0
x[44] 1
x[45] 0
x[46] 1
x[47] 1
x[48] 0
x[49] 1
x[50] 1
x[51] 0
x[52] 0
x[53] 0
x[54] 0
x[55] 0
x[56] 1
x[57] 0
x[58] 0
x[59] 0
x[60] 0
x[61] 0
x[62] 0
x[63] 1
x[64] 0
x[65] 0
x[66] 0
x[67] 1
x[68] 0
x[69] 0
x[70] 0
x[71] 0
x[72] 1.1060204158012210e-07
x[73] 0
x[74] 0
x[75] 0
x[76] 1
x[77] 0
x[78] 0
x[79] 0
x[80] 0
x[81] 0
x[82] 1
x[83] 0
x[84] 1
x[85] 0
x[86] 0
x[87] 0
x[88] 9.9999989222221741e-01
x[89] 1
x[90] 1
x[91] 1
x[92] 0
x[93] 0
x[94] 0
x[95] 1
x[96] 0
x[97] 0
x[98] 0
x[99] 1
x[100] 0
x[101] 0
x[102] 1
x[103] 0
x[104] 0
x[105] 0
x[106] 1
x[107] 1
x[108] 1
x[109] 0
x[110] 0
x[111] 1
x[112] 1
x[113] 1
x[114] 1
x[115] 0
x[116] 0
x[117] 1
x[118] 0
x[119] 0
x[120] 1
x[121] 1
x[122] 0
x[123] 0
x[124] 0
x[125] 0
x[126] 1
x[127] 1
x[128] 1
x[129] 1
x[130] 1
x[131] 0
x[132] 0
x[133] 1
x[134] 1
x[135] 0
x[136] 0
x[137] 0
x[138] 0
x[139] 0
x[140] 1
x[141] 1
x[142] 1
x[143] 0
x[144] 1
x[145] 0
x[146] 1
x[147] 0
x[148] 0
x[149] 0
x[150] 1
x[151] 0
x[152] 1
x[153] 0
x[154] 0
x[155] 1
x[156] 1
x[157] 0
x[158] 1
x[159] 1
x[160] 1
x[161] 0
x[162] 0
x[163] 0
x[164] 1
x[165] 1
x[166] 1
x[167] 0
x[168] 1
x[169] 9.9999978111110988e-01
x[170] 9.9999999999999922e-01
x[171] 1
x[172] 1
x[173] 0
x[174] 1
x[175] 1
x[176] 1
x[177] 1
x[178] 1
x[179] 1
x[180] 0
x[181] 1
x[182] 0
x[183] 0
x[184] 1
x[185] 0
x[186] 0
x[187] 1
x[188] 1
x[189] 1
x[190] 0
x[191] 0
x[192] 1
x[193] 1
x[194] 1.0000001108737537e+00
x[195] 0
x[196] 1
x[197] 0
x[198] 0
x[199] 0
x[200] 1
x[201] 1
x[202] 0
x[203] 1
x[204] 0
x[205] 1
x[206] 0
x[207] 0
x[208] 1
x[209] 1
x[210] 0
x[211] 0
x[212] 1
x[213] 0
x[214] 0
x[215] 1
x[216] 0
x[217] 0
x[218] 0
x[219] 0
x[220] 1
x[221] 0
x[222] 1
x[223] 0
x[224] 0
x[225] 1
x[226] 0
x[227] 1
x[228] 1
x[229] 0
x[230] 1
x[231] 0
x[232] 0
x[233] 0
x[234] 0
x[235] 0
x[236] 1
x[237] 0
x[238] 0
x[239] 0
x[240] 0
x[241] 0
x[242] 1
x[243] 1
x[244] 0
x[245] 0
x[246] 0
x[247] 0
x[248] 1
x[249] 0
x[250] 1
x[251] 0
x[252] 0
x[253] 1
x[254] 0
x[255] 1
x[256] 1
x[257] 0
x[258] 1
x[259] 0
x[260] 0
x[261] 0
x[262] 1
x[263] 0
x[264] 1
x[265] 0
x[266] 1
x[267] 0
x[268] 0
x[269] 2.2195991831896635e-07
x[270] 0
x[271] 1
x[272] 1
x[273] 1
x[274] 1
x[275] 1
x[276] 0
x[277] 1
x[278] 0
x[279] 0
x[280] 1
x[281] 0
x[282] 0
x[283] 1
x[284] 1
x[285] 1
x[286] 0
x[287] 0
x[288] 0
x[289] 0
x[290] 1
x[291] 0
x[292] 1
x[293] 0
x[294] 0
x[295] 0
x[296] 1
x[297] 1
x[298] 0
x[299] 0
x[300] 0
x[301] 1
x[302] 1
x[303] 0
x[304] 0
x[305] 1
x[306] 0
x[307] 0
x[308] 0
x[309] 0
x[310] 0
x[311] 0
x[312] 0
x[313] 1
x[314] 9.9999978111110988e-01
x[315] 0
x[316] 0
x[317] 1
x[318] 0
x[319] 1
x[320] 0
x[321] 1
x[322] 0
x[323] 1
x[324] 1
x[325] 0
x[326] 0
x[327] 0
x[328] 1
x[329] 0
x[330] 0
x[331] 1
x[332] 1
x[333] 0
x[334] 0
x[335] 0
x[336] 0
x[337] 0
x[338] 1
x[339] 0
x[340] 0
x[341] 0
x[342] 1
x[343] 1
x[344] 0
x[345] 1
x[346] 1
x[347] 0
x[348] 1
x[349] 1
x[350] 0
x[351] 0
x[352] 1
x[353] 0
x[354] 1
x[355] 1
x[356] 0
x[357] 9.9999978111110988e-01
x[358] 0
x[359] 0
x[360] 1
x[361] 0
x[362] 1
x[363] 0
x[364] 0
x[365] 1
x[366] 1
x[367] 0
x[368] 1
x[369] 0
x[370] 0
x[371] 1
x[372] 0
x[373] -1.3859678219778604e-07
x[374] 0
x[375] 1
x[376] 1
x[377] 1
x[378] 0
x[379] 9.9999989222221741e-01
x[380] 1
x[381] 9.9999978111110976e-01
x[382] 1
x[383] 0
x[384] 1
x[385] 1
x[386] 0
x[387] 0
x[388] 1
x[389] 0
x[390] 1
x[391] 0
x[392] 1
x[393] 0
x[394] 1
x[395] 1
x[396] 1
x[397] 0
x[398] 1
x[399] 0
x[400] 0
x[401] 1
x[402] 0
x[403] 2.2187700660067126e-07
x[404] 1
x[405] 1
x[406] 0
x[407] 1
x[408] 1
x[409] 1
x[410] 1
x[411] 0
x[412] 1
x[413] 0
x[414] 0
x[415] 0
x[416] 1
x[417] 0
x[418] 2.2208273410488585e-07
x[419] 1
x[420] 0
x[421] 1
x[422] 1
x[423] 1
x[424] 0
x[425] 0
x[426] 0
x[427] 2.2196893788424705e-07
x[428] 1
x[429] 0
x[430] 1
x[431] 1
x[432] 1.1096955244793321e-07
x[433] 1
x[434] 1
x[435] 1
x[436] 0
x[437] 0
x[438] 1
x[439] 0
x[440] 0
x[441] 0
x[442] 0
x[443] 0
x[444] 0
x[445] 1
x[446] 0
x[447] 1
x[448] 1
x[449] 1
x[450] 0
x[451] 1
x[452] 0
x[453] 0
x[454] 1
x[455] 0
x[456] 0
x[457] 1
x[458] 0
x[459] 0
x[460] 1
x[461] 1
x[462] 0
x[463] 0
x[464] 0
x[465] 9.9999989222221763e-01
x[466] 1
x[467] 1
x[468] 0
x[469] 0
x[470] 0
x[471] 0
x[472] 0
x[473] 1
x[474] 0
x[475] 1
x[476] 0
x[477] 0
x[478] 1
x[479] 1
x[480] 0
x[481] 1
x[482] 1
x[483] 1
x[484] 0
x[485] 1
x[486] 0
x[487] 0
x[488] 1
x[489] 0
x[490] 0
x[491] 1
x[492] 0
x[493] 0
x[494] 0
x[495] 1
x[496] 0
x[497] 1
x[498] 1
x[499] 0
x[500] 0
x[501] 0
x[502] 0
x[503] 1
x[504] 1
x[505] 1
x[506] 1
x[507] 1
x[508] 1
x[509] 0
x[510] 1
x[511] 0
x[512] 0
x[513] 0
x[514] 0
x[515] 0
x[516] 1
x[517] 1
x[518] 0
x[519] 1
x[520] 1
x[521] 1
x[522] 0
x[523] 0
x[524] 0
x[525] 0
x[526] 0
x[527] 0
x[528] 0
x[529] 0
x[530] 1
x[531] 1
x[532] 0
x[533] 1
x[534] 1
x[535] 1
x[536] 0
x[537] 1
x[538] 1
x[539] 1
x[540] 0
x[541] 1
x[542] 1
x[543] 0
x[544] 0
x[545] 1
x[546] 1
x[547] 0
x[548] 1
x[549] 1
x[550] 1
x[551] 1
x[552] 0
x[553] 1
x[554] 1
x[555] 1
x[556] 1
x[557] 0
x[558] 1
x[559] 1
x[560] 0
x[561] 0
x[562] 0
x[563] 0
x[564] 1
x[565] 0
x[566] 1
x[567] 0
x[568] 0
x[569] 1
x[570] 1
x[571] 1
x[572] 1
x[573] 0
x[574] 1
x[575] 0
x[576] 0
x[577] 1
x[578] 1
x[579] 0
x[580] 1
x[581] 1
x[582] 1
x[583] 1
x[584] 0
x[585] 1
x[586] 0
x[587] 0
x[588] 0
x[589] 1
x[590] 0
x[591] 1
x[592] 0
x[593] 1
x[594] 1
x[595] 1
x[596] 1
x[597] 0
x[598] 1
x[599] 0
x[600] 0
x[601] 1
x[602] 0
x[603] 0
x[604] 1
x[605] 0
x[606] 1
x[607] 0
x[608] 0
x[609] 1
x[610] 0
x[611] 1
x[612] 0
x[613] 0
x[614] 1
x[615] 1
x[616] 1
x[617] 1
x[618] 0
x[619] 1
x[620] 1
x[621] 0
x[622] 1
x[623] 1
x[624] 1
x[625] 1
x[626] 0
x[627] 1
x[628] 0
x[629] 0
x[630] 2.2206022431593459e-07
x[631] 0
x[632] 1
x[633] 0
x[634] 0
x[635] 0
x[636] 1
x[637] 0
x[638] 0
x[639] 1
x[640] 0
x[641] 1
x[642] 1
x[643] 0
x[644] 0
x[645] 1
x[646] 1
x[647] 1
x[648] 0
x[649] 0
x[650] 0
x[651] 1
x[652] 0
x[653] 0
x[654] 1
x[655] 1
x[656] 0
x[657] 0
x[658] 1
x[659] 0
x[660] 1
x[661] 0
x[662] 1
x[663] 1
x[664] 1
x[665] 1
x[666] 1
x[667] 0
x[668] 0
x[669] 1
x[670] 0
x[671] 0
x[672] 0
x[673] 1
x[674] 0
x[675] 1
x[676] 1
x[677] 1
x[678] 0
x[679] 1
x[680] 1
x[681] 0
x[682] 0
x[683] 0
x[684] 0
x[685] 0
x[686] 1
x[687] 0
x[688] 0
x[689] 0
x[690] 1
x[691] 1
x[692] 0
x[693] 1
x[694] 1
x[695] 0
x[696] 0
x[697] 0
x[698] 1
x[699] 1
x[700] 1
x[701] 0
x[702] 0
x[703] 1
x[704] 0
x[705] 1
x[706] 1
x[707] 0
x[708] 0
x[709] 1
x[710] 1
x[711] 0
x[712] 0
x[713] 1
x[714] 0
x[715] 1
x[716] 1
x[717] 0
x[718] 1
x[719] 1
x[720] 1
x[721] 1
x[722] 1
x[723] 1
x[724] 1
x[725] 1
x[726] 1
x[727] 0
x[728] 0
x[729] 0
x[730] 0
x[731] 1
x[732] 1
x[733] 0
x[734] 1
x[735] 1
x[736] 1
x[737] 0
x[738] 0
x[739] 1
x[740] 1
x[741] 0
x[742] 1
x[743] 1
x[744] 0
x[745] 0
x[746] 1
x[747] 0
x[748] 0
x[749] 0
x[750] 0
x[751] 1
x[752] 1
x[753] 0
x[754] 0
x[755] 0
x[756] 0
x[757] 9.9999989222221763e-01
x[758] 0
x[759] 0
x[760] 1
x[761] 1
x[762] 1
x[763] 0
x[764] 0
x[765] 1
x[766] 1
x[767] 0
x[768] 0
x[769] 0
x[770] 1
x[771] 1
x[772] 1
x[773] 1
x[774] 0
x[775] 1
x[776] 0
x[777] 1
x[778] 1
x[779] 1
x[780] 1
x[781] 1
x[782] 1
x[783] 0
x[784] 1
x[785] 1
x[786] 0
x[787] 0
x[788] 1
x[789] 0
x[790] 0
x[791] 0
x[792] 0
x[793] 1
x[794] 1
x[795] 1
x[796] 1
x[797] 0
x[798] 0
x[799] 1
x[800] 1
x[801] 1
x[802] 1
x[803] 0
x[804] 1
x[805] 1
x[806] 0
x[807] 0
x[808] 0
x[809] 0
x[810] 0
x[811] 1
x[812] 0
x[813] 1
x[814] 0
x[815] 0
x[816] 0
x[817] 1
x[818] 1
x[819] 0
x[820] 0
x[821] 1
x[822] 0
x[823] 0
x[824] 1
x[825] 1
x[826] 0
x[827] 1
x[828] 0
x[829] 1
x[830] 0
x[831] 1
x[832] 0
x[833] 0
x[834] 0
x[835] 1
x[836] 1
x[837] 0
x[838] 1
x[839] 0
x[840] 1
x[841] 0
x[842] 0
x[843] 0
x[844] 1
x[845] 1
x[846] 1
x[847] 1
x[848] 0
x[849] 0
x[850] 0
x[851] 1
x[852] 1
x[853] 0
x[854] 0
x[855] 1
x[856] 0
x[857] 1
x[858] 1
x[859] 1
x[860] 0
x[861] 1
x[862] 0
x[863] 1
x[864] 1
x[865] 0
x[866] 0
x[867] 0
x[868] 1
x[869] 0
x[870] 0
x[871] 0
x[872] 1
x[873] 1
x[874] 1
x[875] 0
x[876] 1
x[877] 0.999999781373415
x[878] 1
x[879] 0
x[880] 0
x[881] 1
x[882] 0
x[883] 0
x[884] 1
x[885] 1
x[886] 1
x[887] 0
x[888] 1
x[889] 1
x[890] 0
x[891] 1
x[892] 0
x[893] 1
x[894] 9.9999977777777649e-01
x[895] 0
x[896] 0
x[897] 0
x[898] 1
x[899] 1
x[900] 1
x[901] 1
x[902] 1
x[903] 1
x[904] 0
x[905] 0
x[906] 1
x[907] 0
x[908] 0
x[909] 1
x[910] 1
x[911] 0
x[912] 1
x[913] 1
x[914] 0
x[915] 1
x[916] 1
x[917] 0
x[918] 1
x[919] 1
x[920] 0
x[921] 1
x[922] 1
x[923] 1
x[924] 1
x[925] 0
x[926] 1
x[927] 0
x[928] 0
x[929] 0
x[930] 1
x[931] 0
x[932] 1
x[933] 0
x[934] 1
x[935] 0
x[936] 0
x[937] 0
x[938] 1
x[939] 0
x[940] 1
x[941] 1
x[942] 1
x[943] 0
x[944] 1
x[945] 0
x[946] 1
x[947] 0
x[948] 1
x[949] 0
x[950] 0
x[951] 1
x[952] 0
x[953] 0
x[954] 1
x[955] 0
x[956] 1
x[957] 1
x[958] 0
x[959] 1
x[960] 1
x[961] 1
x[962] 0
x[963] 1
x[964] 0
x[965] 1.1084118415349623e-07
x[966] 0
x[967] 1
x[968] 1
x[969] 0
x[970] 1
x[971] 0
x[972] 1
x[973] 0
x[974] 0
x[975] 1
x[976] 0
x[977] 1
x[978] 0
x[979] 0
x[980] 1
x[981] 0
x[982] 1
x[983] 1
x[984] 0
x[985] 0
x[986] 1
x[987] 0
x[988] 1
x[989] 0
x[990] 0
x[991] 0
x[992] 0
x[993] 1
x[994] 1
x[995] 1
x[996] 0
x[997] 0
x[998] 0
x[999] 1
